100 2475 
1 74 1
1 59 1
1 24 1
1 52 1
1 20 1
1 47 1
1 39 1
1 12 1
1 99 1
1 61 1
1 46 1
1 70 1
1 92 1
1 16 1
1 67 1
1 79 1
1 37 1
1 76 1
1 48 1
1 80 1
1 94 1
1 42 1
1 43 1
1 8 1
1 38 1
1 36 1
1 77 1
1 51 1
1 91 1
1 31 1
1 93 1
1 33 1
1 89 1
1 17 1
1 87 1
1 19 1
1 55 1
1 40 1
1 26 1
1 34 1
1 64 1
1 10 1
1 28 1
1 9 1
1 5 1
1 65 1
1 49 1
1 44 1
1 14 1
1 90 1
2 14 1
2 88 1
2 82 1
2 40 1
2 87 1
2 25 1
2 92 1
2 98 1
2 73 1
2 96 1
2 64 1
2 90 1
2 63 1
2 65 1
2 19 1
2 7 1
2 68 1
2 58 1
2 17 1
2 89 1
2 35 1
2 11 1
2 41 1
2 49 1
2 75 1
2 34 1
2 55 1
2 16 1
2 3 1
2 12 1
2 20 1
2 31 1
2 9 1
2 50 1
2 30 1
2 60 1
2 97 1
2 6 1
2 4 1
2 13 1
2 28 1
2 62 1
2 21 1
2 52 1
2 84 1
2 44 1
2 47 1
2 74 1
2 95 1
2 71 1
2 94 1
2 69 1
2 53 1
3 26 1
3 24 1
3 51 1
3 59 1
3 86 1
3 98 1
3 35 1
3 76 1
3 23 1
3 93 1
3 99 1
3 31 1
3 47 1
3 48 1
3 95 1
3 97 1
3 43 1
3 84 1
3 5 1
3 21 1
3 19 1
3 33 1
3 32 1
3 22 1
3 55 1
3 66 1
3 16 1
3 39 1
3 25 1
3 83 1
3 15 1
3 34 1
3 36 1
3 63 1
3 8 1
3 91 1
3 52 1
3 40 1
3 88 1
3 90 1
3 41 1
3 68 1
3 53 1
3 96 1
3 69 1
3 18 1
3 72 1
4 93 1
4 49 1
4 96 1
4 58 1
4 73 1
4 9 1
4 41 1
4 54 1
4 88 1
4 98 1
4 80 1
4 47 1
4 94 1
4 67 1
4 61 1
4 16 1
4 36 1
4 60 1
4 75 1
4 71 1
4 62 1
4 43 1
4 65 1
4 95 1
4 56 1
4 90 1
4 30 1
4 72 1
4 46 1
4 42 1
4 27 1
4 23 1
4 48 1
4 34 1
4 86 1
4 17 1
4 32 1
4 10 1
4 21 1
4 97 1
4 89 1
4 81 1
4 85 1
4 74 1
4 44 1
4 57 1
4 13 1
4 28 1
4 15 1
4 99 1
4 64 1
4 82 1
4 52 1
4 12 1
5 29 1
5 50 1
5 52 1
5 19 1
5 11 1
5 74 1
5 49 1
5 8 1
5 69 1
5 33 1
5 76 1
5 31 1
5 23 1
5 22 1
5 7 1
5 46 1
5 43 1
5 26 1
5 62 1
5 53 1
5 35 1
5 65 1
5 100 1
5 87 1
5 75 1
5 56 1
5 95 1
5 59 1
5 82 1
5 18 1
5 84 1
5 36 1
5 32 1
5 98 1
5 85 1
5 86 1
5 73 1
5 42 1
5 78 1
5 60 1
5 92 1
6 91 1
6 47 1
6 74 1
6 10 1
6 73 1
6 84 1
6 63 1
6 64 1
6 34 1
6 37 1
6 53 1
6 75 1
6 46 1
6 32 1
6 59 1
6 52 1
6 21 1
6 7 1
6 71 1
6 18 1
6 22 1
6 90 1
6 85 1
6 26 1
6 88 1
6 36 1
6 99 1
6 12 1
6 87 1
6 29 1
6 14 1
6 69 1
6 19 1
6 100 1
6 94 1
6 16 1
6 68 1
6 49 1
6 60 1
6 33 1
6 8 1
6 79 1
7 41 1
7 79 1
7 69 1
7 70 1
7 99 1
7 26 1
7 35 1
7 81 1
7 91 1
7 39 1
7 97 1
7 54 1
7 65 1
7 94 1
7 62 1
7 75 1
7 82 1
7 37 1
7 55 1
7 93 1
7 15 1
7 42 1
7 57 1
7 22 1
7 28 1
7 45 1
7 18 1
7 19 1
7 96 1
7 32 1
7 87 1
7 95 1
7 27 1
7 83 1
7 48 1
7 74 1
7 92 1
7 72 1
8 26 1
8 35 1
8 16 1
8 72 1
8 95 1
8 29 1
8 24 1
8 78 1
8 83 1
8 92 1
8 90 1
8 65 1
8 58 1
8 79 1
8 69 1
8 57 1
8 12 1
8 42 1
8 73 1
8 81 1
8 30 1
8 87 1
8 33 1
8 46 1
8 49 1
8 10 1
8 64 1
8 28 1
8 66 1
8 47 1
8 77 1
8 15 1
8 53 1
8 39 1
8 94 1
8 70 1
8 36 1
8 22 1
8 96 1
8 23 1
8 86 1
8 37 1
8 52 1
8 51 1
8 38 1
9 50 1
9 59 1
9 95 1
9 88 1
9 90 1
9 61 1
9 94 1
9 80 1
9 13 1
9 60 1
9 99 1
9 34 1
9 86 1
9 74 1
9 57 1
9 14 1
9 27 1
9 12 1
9 23 1
9 64 1
9 16 1
9 30 1
9 72 1
9 15 1
9 45 1
9 24 1
9 81 1
9 11 1
9 36 1
9 65 1
9 63 1
9 73 1
9 52 1
10 75 1
10 15 1
10 65 1
10 59 1
10 28 1
10 34 1
10 31 1
10 38 1
10 96 1
10 64 1
10 71 1
10 62 1
10 24 1
10 13 1
10 74 1
10 46 1
10 79 1
10 45 1
10 67 1
10 21 1
10 84 1
10 47 1
10 60 1
10 40 1
10 49 1
10 81 1
10 61 1
10 51 1
10 33 1
10 98 1
10 52 1
10 88 1
10 94 1
10 19 1
10 11 1
10 57 1
10 63 1
10 18 1
10 76 1
10 91 1
10 54 1
10 73 1
10 17 1
10 20 1
10 32 1
10 89 1
10 27 1
10 85 1
11 77 1
11 91 1
11 17 1
11 39 1
11 69 1
11 52 1
11 38 1
11 57 1
11 80 1
11 20 1
11 50 1
11 24 1
11 68 1
11 78 1
11 43 1
11 99 1
11 62 1
11 51 1
11 29 1
11 44 1
11 22 1
11 93 1
11 48 1
11 27 1
11 71 1
11 76 1
11 61 1
11 47 1
11 89 1
11 18 1
11 36 1
11 37 1
11 87 1
11 66 1
11 13 1
11 86 1
11 21 1
11 46 1
11 15 1
11 72 1
11 53 1
11 85 1
11 94 1
11 88 1
11 14 1
11 74 1
11 16 1
11 84 1
11 19 1
11 60 1
11 45 1
11 35 1
11 40 1
11 32 1
11 41 1
12 50 1
12 96 1
12 31 1
12 56 1
12 14 1
12 53 1
12 75 1
12 37 1
12 69 1
12 84 1
12 17 1
12 34 1
12 98 1
12 89 1
12 87 1
12 42 1
12 100 1
12 76 1
12 23 1
12 68 1
12 48 1
12 55 1
12 92 1
12 61 1
12 65 1
12 41 1
12 78 1
12 33 1
12 43 1
12 20 1
12 86 1
12 38 1
12 52 1
12 67 1
12 47 1
12 74 1
12 51 1
12 35 1
12 19 1
12 71 1
12 73 1
12 57 1
12 77 1
12 70 1
12 62 1
13 50 1
13 87 1
13 69 1
13 84 1
13 78 1
13 23 1
13 56 1
13 75 1
13 85 1
13 82 1
13 31 1
13 26 1
13 36 1
13 30 1
13 70 1
13 27 1
13 29 1
13 83 1
13 74 1
13 80 1
13 37 1
13 55 1
13 77 1
13 64 1
13 91 1
13 61 1
13 96 1
13 39 1
13 62 1
13 22 1
13 97 1
13 16 1
13 45 1
13 76 1
13 43 1
13 32 1
13 15 1
13 65 1
13 68 1
13 66 1
13 98 1
14 83 1
14 60 1
14 24 1
14 88 1
14 100 1
14 68 1
14 50 1
14 33 1
14 23 1
14 46 1
14 61 1
14 92 1
14 80 1
14 81 1
14 94 1
14 39 1
14 65 1
14 20 1
14 22 1
14 56 1
14 90 1
14 96 1
14 54 1
14 42 1
14 82 1
14 28 1
14 89 1
14 43 1
14 59 1
14 74 1
14 38 1
14 78 1
14 95 1
14 67 1
14 53 1
14 40 1
14 51 1
14 48 1
14 93 1
14 75 1
14 58 1
14 69 1
14 27 1
14 47 1
14 35 1
14 62 1
14 86 1
14 55 1
14 98 1
14 57 1
15 30 1
15 45 1
15 78 1
15 26 1
15 64 1
15 63 1
15 57 1
15 83 1
15 93 1
15 24 1
15 27 1
15 94 1
15 87 1
15 66 1
15 95 1
15 18 1
15 60 1
15 47 1
15 39 1
15 70 1
15 89 1
15 32 1
15 71 1
15 25 1
15 90 1
15 85 1
15 73 1
15 69 1
15 46 1
15 77 1
15 22 1
15 35 1
15 84 1
15 31 1
15 72 1
15 50 1
15 37 1
15 91 1
15 42 1
15 68 1
15 20 1
15 48 1
16 20 1
16 59 1
16 67 1
16 83 1
16 27 1
16 70 1
16 39 1
16 77 1
16 35 1
16 30 1
16 69 1
16 33 1
16 37 1
16 17 1
16 54 1
16 34 1
16 36 1
16 76 1
16 55 1
16 57 1
16 45 1
16 72 1
16 82 1
16 46 1
16 71 1
16 22 1
16 66 1
16 68 1
16 49 1
16 62 1
16 98 1
16 94 1
16 92 1
16 25 1
16 40 1
16 93 1
16 29 1
16 91 1
16 21 1
16 100 1
16 47 1
16 89 1
16 19 1
16 31 1
16 81 1
16 87 1
16 64 1
16 86 1
16 56 1
17 89 1
17 66 1
17 27 1
17 21 1
17 72 1
17 68 1
17 90 1
17 87 1
17 64 1
17 26 1
17 47 1
17 20 1
17 43 1
17 50 1
17 63 1
17 84 1
17 65 1
17 37 1
17 91 1
17 73 1
17 99 1
17 31 1
17 85 1
17 53 1
17 42 1
17 56 1
17 82 1
17 98 1
17 38 1
17 58 1
17 77 1
17 22 1
17 57 1
17 80 1
17 86 1
17 74 1
17 96 1
17 41 1
17 97 1
18 43 1
18 52 1
18 79 1
18 37 1
18 57 1
18 88 1
18 48 1
18 86 1
18 53 1
18 42 1
18 70 1
18 22 1
18 50 1
18 29 1
18 78 1
18 45 1
18 61 1
18 89 1
18 69 1
18 96 1
18 74 1
18 36 1
18 38 1
18 76 1
18 58 1
18 59 1
18 80 1
18 82 1
18 98 1
18 33 1
18 51 1
18 44 1
18 100 1
18 97 1
18 62 1
18 21 1
18 40 1
18 49 1
18 73 1
18 94 1
19 45 1
19 34 1
19 35 1
19 61 1
19 77 1
19 99 1
19 89 1
19 100 1
19 83 1
19 84 1
19 81 1
19 48 1
19 27 1
19 26 1
19 30 1
19 33 1
19 43 1
19 91 1
19 69 1
19 44 1
19 87 1
19 63 1
19 47 1
19 31 1
19 57 1
19 90 1
19 74 1
19 32 1
19 52 1
19 22 1
19 24 1
19 62 1
19 23 1
19 39 1
19 71 1
19 49 1
19 94 1
19 55 1
19 51 1
19 37 1
20 99 1
20 34 1
20 96 1
20 33 1
20 78 1
20 54 1
20 68 1
20 77 1
20 93 1
20 55 1
20 38 1
20 37 1
20 63 1
20 35 1
20 85 1
20 56 1
20 21 1
20 92 1
20 32 1
20 41 1
20 48 1
20 39 1
20 94 1
20 87 1
20 40 1
20 47 1
20 64 1
20 80 1
20 89 1
20 59 1
20 97 1
20 72 1
20 46 1
20 84 1
20 36 1
20 60 1
20 44 1
20 83 1
20 30 1
20 52 1
20 66 1
20 42 1
21 68 1
21 93 1
21 26 1
21 47 1
21 41 1
21 32 1
21 66 1
21 62 1
21 96 1
21 73 1
21 22 1
21 31 1
21 84 1
21 95 1
21 78 1
21 86 1
21 69 1
21 46 1
21 83 1
21 79 1
21 87 1
21 99 1
21 45 1
21 72 1
21 70 1
21 74 1
21 38 1
21 39 1
21 80 1
21 51 1
21 57 1
21 100 1
21 90 1
21 49 1
21 77 1
21 67 1
21 98 1
21 59 1
22 66 1
22 88 1
22 68 1
22 49 1
22 94 1
22 58 1
22 53 1
22 93 1
22 92 1
22 50 1
22 29 1
22 91 1
22 25 1
22 32 1
22 89 1
22 74 1
22 87 1
22 40 1
22 78 1
22 34 1
22 75 1
22 45 1
22 72 1
22 97 1
22 23 1
22 65 1
22 67 1
22 31 1
22 51 1
22 80 1
22 47 1
22 37 1
22 62 1
22 43 1
22 90 1
22 95 1
22 42 1
22 85 1
22 35 1
22 82 1
22 70 1
22 33 1
23 38 1
23 74 1
23 28 1
23 48 1
23 94 1
23 25 1
23 50 1
23 95 1
23 37 1
23 42 1
23 46 1
23 91 1
23 45 1
23 93 1
23 82 1
23 31 1
23 70 1
23 87 1
23 98 1
23 39 1
23 62 1
23 92 1
23 24 1
23 32 1
23 85 1
23 77 1
23 40 1
23 36 1
23 57 1
23 64 1
23 34 1
23 66 1
23 41 1
23 67 1
23 69 1
23 76 1
23 52 1
23 60 1
23 79 1
23 83 1
23 26 1
23 80 1
23 29 1
24 46 1
24 55 1
24 61 1
24 63 1
24 88 1
24 73 1
24 71 1
24 60 1
24 68 1
24 95 1
24 67 1
24 69 1
24 74 1
24 42 1
24 50 1
24 91 1
24 89 1
24 70 1
24 90 1
24 87 1
24 41 1
24 82 1
24 35 1
24 81 1
24 49 1
24 38 1
24 80 1
24 76 1
24 78 1
24 84 1
24 62 1
24 85 1
24 40 1
24 75 1
24 86 1
24 33 1
24 31 1
24 99 1
24 64 1
24 56 1
25 74 1
25 63 1
25 84 1
25 80 1
25 49 1
25 69 1
25 31 1
25 33 1
25 68 1
25 38 1
25 100 1
25 50 1
25 90 1
25 76 1
25 66 1
25 83 1
25 60 1
25 81 1
25 62 1
25 95 1
25 57 1
25 94 1
25 56 1
25 30 1
25 87 1
25 29 1
25 54 1
25 43 1
25 37 1
25 41 1
25 92 1
25 72 1
25 32 1
26 45 1
26 42 1
26 62 1
26 88 1
26 32 1
26 44 1
26 54 1
26 63 1
26 75 1
26 31 1
26 37 1
26 46 1
26 36 1
26 57 1
26 65 1
26 96 1
26 66 1
26 58 1
26 68 1
26 83 1
26 52 1
26 71 1
26 92 1
26 51 1
26 77 1
26 28 1
26 59 1
26 53 1
26 30 1
26 27 1
26 40 1
26 73 1
26 94 1
26 74 1
26 43 1
26 97 1
27 90 1
27 60 1
27 65 1
27 95 1
27 46 1
27 33 1
27 48 1
27 40 1
27 28 1
27 52 1
27 62 1
27 81 1
27 43 1
27 44 1
27 61 1
27 77 1
27 39 1
27 37 1
27 88 1
27 86 1
27 49 1
27 87 1
27 29 1
27 51 1
27 70 1
27 75 1
27 100 1
27 82 1
27 76 1
27 34 1
27 31 1
27 85 1
27 97 1
27 42 1
27 45 1
27 72 1
28 40 1
28 50 1
28 70 1
28 43 1
28 54 1
28 77 1
28 93 1
28 66 1
28 39 1
28 76 1
28 60 1
28 29 1
28 72 1
28 64 1
28 31 1
28 68 1
28 58 1
28 89 1
28 47 1
28 91 1
28 34 1
28 32 1
28 53 1
28 74 1
28 69 1
28 86 1
28 78 1
29 95 1
29 50 1
29 70 1
29 30 1
29 87 1
29 46 1
29 41 1
29 74 1
29 58 1
29 63 1
29 38 1
29 94 1
29 88 1
29 75 1
29 93 1
29 34 1
29 67 1
29 39 1
29 84 1
29 47 1
29 54 1
29 61 1
29 37 1
29 92 1
29 36 1
29 91 1
29 31 1
29 68 1
29 64 1
29 71 1
29 57 1
29 45 1
29 73 1
29 60 1
29 32 1
29 53 1
29 42 1
29 96 1
30 64 1
30 85 1
30 80 1
30 47 1
30 73 1
30 60 1
30 86 1
30 69 1
30 78 1
30 76 1
30 71 1
30 52 1
30 56 1
30 41 1
30 38 1
30 31 1
30 93 1
30 66 1
30 95 1
30 32 1
30 99 1
30 46 1
30 48 1
30 70 1
30 36 1
30 77 1
30 82 1
30 57 1
30 88 1
30 44 1
30 97 1
30 39 1
30 72 1
30 55 1
30 34 1
30 74 1
30 45 1
30 75 1
30 51 1
30 58 1
30 100 1
31 72 1
31 66 1
31 81 1
31 39 1
31 94 1
31 76 1
31 36 1
31 50 1
31 54 1
31 69 1
31 90 1
31 84 1
31 47 1
31 100 1
31 91 1
31 73 1
31 63 1
31 61 1
31 48 1
31 99 1
31 85 1
31 74 1
31 75 1
31 92 1
31 67 1
31 96 1
31 80 1
31 79 1
31 42 1
31 71 1
31 44 1
31 88 1
31 49 1
31 51 1
32 100 1
32 96 1
32 49 1
32 83 1
32 57 1
32 55 1
32 78 1
32 67 1
32 34 1
32 52 1
32 53 1
32 62 1
32 38 1
32 46 1
32 39 1
32 60 1
32 69 1
32 50 1
32 82 1
32 64 1
32 42 1
32 73 1
32 89 1
32 54 1
32 91 1
32 48 1
32 51 1
32 41 1
32 92 1
32 66 1
32 77 1
33 51 1
33 78 1
33 74 1
33 43 1
33 71 1
33 53 1
33 38 1
33 100 1
33 81 1
33 48 1
33 62 1
33 82 1
33 99 1
33 46 1
33 61 1
33 90 1
33 55 1
33 65 1
33 92 1
33 63 1
33 95 1
33 76 1
33 39 1
33 54 1
33 58 1
33 86 1
33 36 1
33 42 1
33 64 1
33 91 1
33 98 1
33 73 1
33 94 1
33 96 1
33 56 1
33 70 1
34 75 1
34 48 1
34 41 1
34 98 1
34 50 1
34 73 1
34 86 1
34 59 1
34 88 1
34 100 1
34 58 1
34 63 1
34 51 1
34 39 1
34 67 1
34 64 1
34 36 1
34 81 1
34 80 1
34 52 1
34 97 1
34 43 1
34 56 1
34 37 1
34 40 1
34 89 1
34 93 1
34 78 1
34 74 1
34 87 1
34 72 1
34 46 1
34 92 1
34 57 1
34 82 1
34 45 1
34 54 1
34 84 1
34 95 1
34 47 1
35 86 1
35 52 1
35 62 1
35 91 1
35 39 1
35 77 1
35 59 1
35 36 1
35 43 1
35 38 1
35 100 1
35 64 1
35 89 1
35 94 1
35 47 1
35 61 1
35 97 1
35 80 1
35 69 1
35 68 1
35 41 1
35 66 1
35 84 1
35 72 1
35 46 1
35 57 1
35 42 1
35 67 1
35 79 1
35 92 1
35 54 1
35 88 1
35 75 1
35 76 1
35 81 1
36 64 1
36 73 1
36 58 1
36 69 1
36 54 1
36 91 1
36 70 1
36 45 1
36 53 1
36 41 1
36 50 1
36 85 1
36 80 1
36 90 1
36 55 1
36 83 1
36 38 1
36 81 1
36 42 1
36 56 1
36 82 1
36 79 1
36 47 1
36 88 1
36 44 1
36 100 1
36 61 1
36 62 1
36 92 1
36 78 1
36 97 1
37 68 1
37 63 1
37 60 1
37 49 1
37 100 1
37 83 1
37 86 1
37 38 1
37 74 1
37 93 1
37 55 1
37 66 1
37 71 1
37 89 1
37 80 1
37 72 1
37 39 1
37 79 1
37 46 1
37 91 1
37 54 1
37 82 1
37 61 1
37 48 1
37 56 1
37 67 1
37 73 1
37 88 1
37 85 1
37 87 1
37 42 1
37 75 1
37 41 1
37 44 1
37 92 1
37 76 1
37 58 1
37 81 1
38 62 1
38 81 1
38 88 1
38 69 1
38 77 1
38 86 1
38 78 1
38 61 1
38 43 1
38 54 1
38 89 1
38 58 1
38 46 1
38 83 1
38 57 1
38 71 1
38 70 1
38 80 1
38 66 1
38 95 1
38 50 1
38 60 1
38 94 1
38 67 1
38 91 1
38 63 1
38 79 1
38 97 1
39 44 1
39 43 1
39 86 1
39 67 1
39 88 1
39 100 1
39 99 1
39 82 1
39 74 1
39 52 1
39 53 1
39 57 1
39 40 1
39 48 1
39 89 1
39 78 1
39 80 1
39 92 1
39 93 1
39 61 1
39 76 1
39 85 1
39 50 1
39 64 1
39 55 1
40 85 1
40 78 1
40 62 1
40 49 1
40 67 1
40 60 1
40 57 1
40 71 1
40 87 1
40 63 1
40 66 1
40 84 1
40 69 1
40 79 1
40 92 1
40 55 1
40 59 1
40 93 1
40 89 1
40 95 1
40 72 1
40 50 1
40 96 1
40 43 1
40 58 1
40 99 1
41 49 1
41 94 1
41 57 1
41 99 1
41 74 1
41 96 1
41 70 1
41 62 1
41 97 1
41 77 1
41 91 1
41 76 1
41 48 1
41 64 1
41 93 1
41 68 1
41 56 1
41 90 1
41 71 1
41 52 1
41 43 1
41 73 1
41 69 1
41 82 1
41 58 1
41 72 1
41 55 1
41 47 1
41 83 1
41 80 1
41 65 1
42 90 1
42 74 1
42 76 1
42 98 1
42 56 1
42 67 1
42 43 1
42 96 1
42 46 1
42 94 1
42 61 1
42 60 1
42 77 1
42 58 1
42 64 1
42 59 1
42 93 1
42 70 1
42 75 1
42 65 1
42 62 1
42 99 1
42 48 1
42 54 1
42 91 1
42 95 1
42 92 1
42 51 1
42 55 1
42 47 1
42 63 1
43 66 1
43 98 1
43 76 1
43 72 1
43 71 1
43 94 1
43 61 1
43 51 1
43 100 1
43 73 1
43 52 1
43 65 1
43 69 1
43 59 1
43 79 1
43 48 1
43 60 1
43 93 1
43 45 1
43 49 1
43 58 1
43 87 1
43 67 1
43 50 1
43 70 1
43 54 1
43 96 1
43 92 1
43 81 1
43 90 1
43 64 1
43 82 1
44 50 1
44 68 1
44 100 1
44 57 1
44 67 1
44 53 1
44 99 1
44 84 1
44 61 1
44 60 1
44 62 1
44 65 1
44 98 1
44 83 1
44 87 1
44 69 1
44 97 1
44 73 1
44 59 1
44 76 1
44 71 1
44 89 1
44 85 1
44 58 1
44 66 1
44 48 1
44 93 1
44 45 1
44 74 1
44 75 1
45 54 1
45 94 1
45 81 1
45 72 1
45 78 1
45 64 1
45 96 1
45 79 1
45 88 1
45 68 1
45 66 1
45 82 1
45 95 1
45 89 1
45 91 1
45 52 1
45 73 1
45 75 1
45 59 1
45 76 1
45 97 1
45 55 1
45 56 1
45 49 1
45 69 1
45 60 1
45 86 1
46 100 1
46 52 1
46 67 1
46 89 1
46 49 1
46 66 1
46 55 1
46 53 1
46 91 1
46 70 1
46 97 1
46 75 1
46 99 1
46 95 1
46 54 1
46 77 1
46 86 1
46 68 1
46 79 1
46 47 1
46 73 1
46 78 1
46 59 1
46 82 1
46 80 1
46 93 1
46 85 1
46 58 1
46 60 1
47 82 1
47 93 1
47 78 1
47 88 1
47 60 1
47 71 1
47 74 1
47 62 1
47 59 1
47 83 1
47 72 1
47 49 1
47 52 1
47 84 1
47 81 1
47 90 1
47 57 1
47 61 1
47 73 1
47 75 1
47 65 1
47 91 1
47 70 1
47 99 1
47 86 1
47 56 1
47 89 1
47 66 1
47 98 1
47 92 1
48 63 1
48 64 1
48 82 1
48 55 1
48 87 1
48 77 1
48 62 1
48 49 1
48 98 1
48 70 1
48 95 1
48 89 1
48 75 1
48 83 1
48 99 1
48 80 1
48 81 1
48 57 1
48 96 1
48 73 1
48 74 1
48 54 1
48 50 1
48 69 1
48 58 1
48 94 1
48 51 1
48 66 1
48 76 1
48 53 1
49 56 1
49 61 1
49 57 1
49 100 1
49 58 1
49 69 1
49 84 1
49 55 1
49 50 1
49 90 1
49 83 1
49 68 1
49 54 1
49 98 1
49 94 1
49 87 1
49 86 1
49 60 1
49 67 1
49 89 1
49 93 1
49 66 1
49 96 1
49 79 1
49 77 1
49 59 1
49 75 1
50 88 1
50 74 1
50 53 1
50 60 1
50 78 1
50 67 1
50 62 1
50 96 1
50 68 1
50 87 1
50 95 1
50 64 1
50 98 1
50 93 1
50 97 1
50 59 1
50 61 1
50 66 1
50 77 1
50 58 1
50 92 1
50 85 1
50 91 1
50 75 1
50 82 1
51 93 1
51 68 1
51 80 1
51 73 1
51 77 1
51 71 1
51 57 1
51 54 1
51 67 1
51 72 1
51 61 1
51 75 1
51 76 1
51 78 1
51 82 1
51 63 1
51 69 1
51 65 1
51 56 1
51 99 1
51 83 1
51 74 1
51 97 1
52 91 1
52 80 1
52 90 1
52 83 1
52 65 1
52 56 1
52 97 1
52 53 1
52 59 1
52 79 1
52 89 1
52 76 1
52 63 1
52 96 1
52 62 1
52 94 1
52 92 1
52 78 1
52 72 1
52 87 1
52 54 1
52 84 1
52 85 1
53 79 1
53 62 1
53 55 1
53 94 1
53 70 1
53 71 1
53 90 1
53 89 1
53 69 1
53 99 1
53 86 1
53 84 1
53 74 1
53 73 1
53 61 1
53 58 1
53 97 1
53 72 1
53 75 1
53 82 1
53 85 1
53 66 1
53 54 1
53 78 1
53 63 1
53 60 1
53 92 1
54 83 1
54 58 1
54 69 1
54 93 1
54 90 1
54 70 1
54 91 1
54 74 1
54 84 1
54 68 1
54 59 1
54 98 1
54 88 1
54 64 1
54 87 1
54 82 1
54 57 1
54 62 1
54 89 1
55 74 1
55 82 1
55 68 1
55 65 1
55 67 1
55 92 1
55 77 1
55 88 1
55 87 1
55 78 1
55 97 1
55 100 1
55 80 1
55 91 1
55 90 1
55 66 1
55 98 1
55 72 1
55 70 1
55 59 1
56 69 1
56 59 1
56 74 1
56 70 1
56 96 1
56 62 1
56 88 1
56 83 1
56 94 1
56 66 1
56 90 1
56 80 1
56 57 1
56 92 1
56 87 1
56 68 1
56 95 1
56 58 1
56 78 1
56 61 1
56 97 1
56 82 1
57 70 1
57 85 1
57 82 1
57 83 1
57 72 1
57 71 1
57 98 1
57 90 1
57 60 1
57 93 1
57 64 1
57 95 1
57 81 1
57 84 1
57 69 1
57 99 1
58 79 1
58 94 1
58 77 1
58 68 1
58 95 1
58 86 1
58 100 1
58 89 1
58 67 1
58 80 1
58 71 1
58 90 1
58 64 1
58 63 1
58 97 1
58 70 1
58 81 1
58 74 1
58 82 1
58 91 1
58 60 1
58 92 1
58 85 1
59 66 1
59 95 1
59 73 1
59 98 1
59 81 1
59 93 1
59 91 1
59 72 1
59 94 1
59 67 1
59 65 1
59 63 1
59 85 1
59 96 1
59 88 1
59 97 1
59 83 1
59 69 1
59 71 1
59 92 1
59 64 1
60 77 1
60 65 1
60 85 1
60 99 1
60 66 1
60 81 1
60 82 1
60 78 1
60 63 1
60 73 1
60 80 1
60 69 1
60 70 1
60 74 1
60 87 1
60 71 1
61 84 1
61 80 1
61 95 1
61 94 1
61 87 1
61 62 1
61 78 1
61 82 1
61 89 1
61 67 1
61 75 1
61 86 1
61 79 1
61 72 1
61 64 1
61 93 1
61 63 1
61 83 1
61 96 1
61 66 1
61 97 1
61 100 1
62 93 1
62 77 1
62 63 1
62 69 1
62 87 1
62 96 1
62 68 1
62 82 1
62 65 1
62 79 1
62 92 1
62 78 1
62 95 1
62 97 1
62 71 1
62 86 1
63 80 1
63 68 1
63 75 1
63 65 1
63 100 1
63 69 1
63 86 1
63 74 1
63 77 1
63 98 1
63 73 1
63 71 1
63 79 1
63 76 1
64 67 1
64 84 1
64 82 1
64 100 1
64 98 1
64 68 1
64 81 1
64 75 1
64 91 1
64 66 1
64 74 1
64 95 1
64 99 1
64 96 1
65 81 1
65 73 1
65 66 1
65 68 1
65 70 1
65 79 1
65 75 1
65 86 1
65 92 1
65 84 1
65 96 1
65 91 1
65 85 1
65 71 1
65 94 1
65 90 1
65 98 1
65 67 1
65 69 1
66 68 1
66 98 1
66 71 1
66 90 1
66 88 1
66 81 1
66 93 1
66 89 1
66 84 1
66 82 1
66 96 1
66 69 1
66 91 1
66 73 1
67 69 1
67 73 1
67 71 1
67 79 1
67 74 1
67 96 1
67 78 1
67 86 1
67 98 1
67 87 1
67 83 1
67 84 1
67 88 1
67 100 1
67 85 1
67 92 1
67 95 1
68 94 1
68 98 1
68 74 1
68 81 1
68 76 1
68 82 1
68 100 1
68 91 1
68 73 1
68 95 1
68 97 1
68 93 1
68 72 1
68 75 1
68 79 1
68 77 1
68 87 1
69 83 1
69 91 1
69 94 1
69 89 1
69 73 1
69 86 1
69 96 1
69 98 1
69 87 1
69 76 1
69 71 1
69 90 1
69 77 1
69 70 1
69 72 1
69 88 1
69 80 1
69 95 1
69 78 1
70 80 1
70 96 1
70 100 1
70 97 1
70 95 1
70 94 1
70 71 1
70 88 1
70 76 1
70 73 1
70 90 1
70 75 1
70 93 1
71 75 1
71 89 1
71 95 1
71 99 1
71 80 1
71 85 1
71 100 1
71 90 1
71 78 1
71 93 1
71 88 1
71 84 1
71 97 1
71 73 1
71 79 1
71 86 1
72 87 1
72 92 1
72 79 1
72 80 1
72 100 1
72 81 1
72 93 1
72 97 1
72 73 1
72 77 1
72 76 1
72 85 1
72 86 1
72 78 1
73 91 1
73 76 1
73 87 1
73 81 1
73 80 1
73 97 1
73 100 1
73 75 1
73 94 1
73 77 1
73 74 1
73 89 1
73 95 1
74 88 1
74 77 1
74 75 1
74 97 1
74 85 1
74 99 1
74 79 1
74 84 1
74 83 1
74 76 1
74 96 1
74 92 1
74 90 1
74 80 1
74 94 1
74 89 1
74 100 1
75 91 1
75 79 1
75 99 1
75 88 1
75 98 1
75 77 1
75 90 1
75 84 1
75 82 1
75 80 1
75 83 1
75 92 1
75 86 1
75 94 1
75 78 1
76 98 1
76 82 1
76 100 1
76 78 1
76 96 1
76 97 1
76 90 1
76 88 1
76 81 1
77 95 1
77 92 1
77 99 1
77 81 1
77 78 1
77 84 1
77 96 1
77 97 1
77 93 1
77 88 1
78 85 1
78 83 1
78 93 1
78 99 1
78 97 1
78 90 1
78 92 1
78 98 1
78 79 1
79 92 1
79 81 1
79 84 1
79 97 1
79 85 1
79 90 1
79 89 1
79 95 1
79 88 1
79 98 1
79 91 1
79 83 1
80 85 1
80 98 1
80 83 1
80 86 1
80 96 1
80 88 1
80 87 1
80 100 1
80 90 1
81 93 1
81 85 1
81 82 1
81 89 1
81 98 1
81 99 1
81 88 1
81 83 1
81 87 1
81 92 1
81 97 1
82 86 1
82 97 1
82 87 1
82 98 1
82 84 1
82 91 1
82 88 1
82 92 1
82 94 1
83 97 1
83 98 1
83 91 1
83 90 1
83 89 1
83 88 1
83 96 1
83 94 1
83 99 1
84 89 1
84 85 1
84 86 1
84 93 1
84 88 1
84 100 1
84 91 1
85 88 1
85 99 1
85 89 1
85 98 1
85 93 1
86 90 1
86 89 1
86 94 1
86 92 1
86 88 1
86 96 1
86 97 1
86 87 1
87 88 1
87 95 1
87 93 1
87 94 1
87 96 1
87 100 1
87 92 1
87 91 1
87 99 1
87 90 1
87 97 1
88 94 1
88 96 1
88 89 1
88 95 1
88 99 1
88 97 1
88 91 1
89 94 1
89 93 1
89 92 1
89 99 1
89 96 1
90 100 1
90 94 1
90 98 1
90 97 1
91 99 1
91 95 1
91 100 1
92 96 1
93 95 1
93 99 1
94 98 1
94 100 1
94 99 1
95 98 1
95 100 1
95 96 1
95 97 1
97 98 1
97 99 1
98 99 1
